NAME: Random_100_5
ELLAPSED_TIME_(ms): 680
TOUR_SIZE: 2417
TOUR_SECTION
0
34
13
2
55
4
83
30
82
87
57
35
99
78
93
32
84
45
60
10
95
67
68
69
80
16
6
21
9
72
59
61
5
12
25
98
91
11
96
48
86
88
40
47
14
77
33
75
97
23
8
54
27
22
3
66
37
18
20
43
53
81
46
76
79
28
52
56
41
94
64
70
51
89
62
15
92
38
31
39
74
36
42
1
19
29
7
90
85
71
65
50
73
24
17
49
58
26
63
44
0
EOF
